35 
300 
-0.5 0 0 0
0.5 0 0 -121
-7 -7 -35 -99
-7 -5 -35 -118
-7 -3 35 -11
-7 -1 35 -28
-7 1 35 -29
-7 3 35 -20
-7 5 -35 -128
-7 7 -35 -120
-5 -7 35 -28
-5 -5 -25 -86
-5 -3 -25 -71
-5 -1 -25 -105
-5 1 -25 -98
-5 3 25 -24
-5 5 25 -27
-5 7 35 -11
-3 -7 -35 -138
-3 -5 -25 -126
-3 -3 -15 -112
-3 -1 15 -23
-3 1 15 -28
-3 3 -15 -94
-3 5 -25 -91
-3 7 -35 -109
-1 -7 -35 -94
-1 -5 25 -13
-1 -3 15 -24
-1 -1 5 -25
-1 1 5 -14
-1 3 15 -23
-1 5 25 -25
-1 7 -35 -108
1 -7 35 -19
1 -5 25 -24
1 -3 -15 -91
1 -1 5 -24
1 1 -5 -89
1 3 -15 -79
1 5 25 -27
1 7 35 -22
3 -7 -35 -107
3 -5 25 -14
3 -3 15 -23
3 -1 -15 -91
3 1 15 -24
3 3 15 -16
3 5 -25 -70
3 7 -35 -89
5 -7 35 -11
5 -5 -25 -138
5 -3 25 -15
5 -1 -25 -134
5 1 25 -28
5 3 -25 -83
5 5 -25 -60
5 7 35 -26
7 -7 -35 -69
7 -5 -35 -110
7 -3 -35 -106
7 -1 -35 -116
7 1 -35 -136
7 3 -35 -70
7 5 35 -17
7 7 -35 -114
